Route #1: 26 12 40
Route #2: 49 24 3 17
Route #3: 25 18 50 44
Route #4: 32 9
Route #5: 39 31 10
Route #6: 38 11
Route #7: 14 53 7
Route #8: 34 46 8
Route #9: 35 19 54 13 15
Route #10: 20 37 36 47
Route #11: 21 28 22
Route #12: 43 42 41 23 16
Route #13: 1 33 51
Route #14: 6 2 30
Route #15: 48 5 29
Route #16: 45 27 52
Route #17: 4
Cost 989